words_train/words_992_SAT.qaiger
aag 89 16 0 1 73
32
16
8
22
20
12
26
30
6
4
18
10
28
2
14
24
178
34 33 19
36 32 18
38 37 35
40 31 21
42 30 20
44 43 41
46 44 38
48 29 23
50 28 22
52 51 49
54 52 46
56 27 25
58 26 24
60 59 57
62 60 54
64 63 38
66 4 2
68 66 6
70 68 8
72 70 10
74 72 12
76 74 14
78 77 16
80 76 17
82 81 79
84 83 64
86 82 65
88 87 85
90 75 15
92 91 77
94 63 44
96 94 92
98 95 93
100 73 13
102 101 75
104 63 52
106 105 103
108 60 55
110 71 11
112 111 73
114 112 108
116 104 102
118 69 9
120 119 71
122 61 54
124 123 109
126 125 120
128 53 47
130 129 55
132 67 7
134 133 69
136 134 130
138 38 2
140 139 45
142 140 5
144 53 7
146 145 47
148 146 67
150 148 143
152 151 137
154 152 127
156 124 121
158 113 109
160 159 157
162 160 155
164 163 117
166 164 115
168 167 107
170 168 99
172 171 97
174 173 89
176 172 88
178 177 175
i0 1 x[7]
i1 2 y[7]
i2 2 y[3]
i3 1 x[2]
i4 1 x[1]
i5 2 y[5]
i6 1 x[4]
i7 1 x[6]
i8 2 y[2]
i9 2 y[1]
i10 1 x[0]
i11 2 y[4]
i12 1 x[5]
i13 2 y[0]
i14 2 y[6]
i15 1 x[3]
o0 bv[0]
c
simplified
  >=
    add
      1
      2 y
    xor
      reverse
        1 x
      invert
        1 x
