words_train/words_992_SAT.qaiger.qdimacs
p cnf 89 220
a 9 10 11 12 13 14 15 16 0
e 1 2 3 4 5 6 7 8 17 18 19 20 21 22 23 24 25 26 27 28 29 30 31 32 33 34 35 36 37 38 39 40 41 42 43 44 45 46 47 48 49 50 51 52 53 54 55 56 57 58 59 60 61 62 63 64 65 66 67 68 69 70 71 72 73 74 75 76 77 78 79 80 81 82 83 84 85 86 87 88 89 0
16 9 17 0
-16 -17 0
-9 -17 0
-16 -9 18 0
16 -18 0
9 -18 0
18 17 19 0
-18 -19 0
-17 -19 0
15 10 20 0
-15 -20 0
-10 -20 0
-15 -10 21 0
15 -21 0
10 -21 0
21 20 22 0
-21 -22 0
-20 -22 0
-22 -19 23 0
22 -23 0
19 -23 0
14 11 24 0
-14 -24 0
-11 -24 0
-14 -11 25 0
14 -25 0
11 -25 0
25 24 26 0
-25 -26 0
-24 -26 0
-26 -23 27 0
26 -27 0
23 -27 0
13 12 28 0
-13 -28 0
-12 -28 0
-13 -12 29 0
13 -29 0
12 -29 0
29 28 30 0
-29 -30 0
-28 -30 0
-30 -27 31 0
30 -31 0
27 -31 0
31 -19 32 0
-31 -32 0
19 -32 0
-2 -1 33 0
2 -33 0
1 -33 0
-33 -3 34 0
33 -34 0
3 -34 0
-34 -4 35 0
34 -35 0
4 -35 0
-35 -5 36 0
35 -36 0
5 -36 0
-36 -6 37 0
36 -37 0
6 -37 0
-37 -7 38 0
37 -38 0
7 -38 0
38 -8 39 0
-38 -39 0
8 -39 0
-38 8 40 0
38 -40 0
-8 -40 0
40 39 41 0
-40 -41 0
-39 -41 0
41 -32 42 0
-41 -42 0
32 -42 0
-41 32 43 0
41 -43 0
-32 -43 0
43 42 44 0
-43 -44 0
-42 -44 0
37 7 45 0
-37 -45 0
-7 -45 0
45 38 46 0
-45 -46 0
-38 -46 0
31 -22 47 0
-31 -47 0
22 -47 0
-47 -46 48 0
47 -48 0
46 -48 0
47 46 49 0
-47 -49 0
-46 -49 0
36 6 50 0
-36 -50 0
-6 -50 0
50 37 51 0
-50 -51 0
-37 -51 0
31 -26 52 0
-31 -52 0
26 -52 0
52 51 53 0
-52 -53 0
-51 -53 0
-30 27 54 0
30 -54 0
-27 -54 0
35 5 55 0
-35 -55 0
-5 -55 0
55 36 56 0
-55 -56 0
-36 -56 0
-56 -54 57 0
56 -57 0
54 -57 0
-52 -51 58 0
52 -58 0
51 -58 0
34 4 59 0
-34 -59 0
-4 -59 0
59 35 60 0
-59 -60 0
-35 -60 0
30 -27 61 0
-30 -61 0
27 -61 0
61 54 62 0
-61 -62 0
-54 -62 0
62 -60 63 0
-62 -63 0
60 -63 0
26 23 64 0
-26 -64 0
-23 -64 0
64 27 65 0
-64 -65 0
-27 -65 0
33 3 66 0
-33 -66 0
-3 -66 0
66 34 67 0
-66 -67 0
-34 -67 0
-67 -65 68 0
67 -68 0
65 -68 0
-19 -1 69 0
19 -69 0
1 -69 0
69 22 70 0
-69 -70 0
-22 -70 0
-70 2 71 0
70 -71 0
-2 -71 0
26 3 72 0
-26 -72 0
-3 -72 0
72 23 73 0
-72 -73 0
-23 -73 0
-73 33 74 0
73 -74 0
-33 -74 0
-74 71 75 0
74 -75 0
-71 -75 0
75 68 76 0
-75 -76 0
-68 -76 0
-76 63 77 0
76 -77 0
-63 -77 0
-62 60 78 0
62 -78 0
-60 -78 0
56 54 79 0
-56 -79 0
-54 -79 0
79 78 80 0
-79 -80 0
-78 -80 0
-80 77 81 0
80 -81 0
-77 -81 0
81 58 82 0
-81 -82 0
-58 -82 0
-82 57 83 0
82 -83 0
-57 -83 0
83 53 84 0
-83 -84 0
-53 -84 0
-84 49 85 0
84 -85 0
-49 -85 0
85 48 86 0
-85 -86 0
-48 -86 0
86 44 87 0
-86 -87 0
-44 -87 0
-86 -44 88 0
86 -88 0
44 -88 0
88 87 89 0
-88 -89 0
-87 -89 0
89 0
